000 -99 -99 -99 -99 -99 000 -99 -99 -99 -99 -99 -99 000 000 -99 -99 -99 000 000 000 -99 -99 000 000 000 -99 000 -99 -99 -99
-99 -99 -99 -99 -99 -99 000 000 000 -99 -99 -99 -99 000 000 000 -99 -99 -99 -99 -99 -99 -99 -99 000 000 -99 -99 -99 -99 -99
-99 -99 000 000 -99 -99 000 000 000 -99 -99 -99 -99 -99 000 000 000 -99 -99 -99 -99 -99 000 000 000 000 -99 -99 -99 -99 -99
000 -99 000 000 000 000 000 000 000 -99 -99 -99 -99 -99 000 000 -99 -99 -99 -99 000 -99 000 000 000 -99 -99 -99 -99 -99 -99
000 -99 000 000 000 000 000 000 000 -99 -99 -99 000 -99 -99 000 000 -99 -99 -99 000 000 000 000 000 000 -99 -99 -99 -99 -99
000 000 000 000 000 000 000 000 000 -99 -99 -99 000 -99 -99 000 000 -99 -99 -99 000 000 000 000 000 -99 -99 -99 -99 -99 -99
000 000 000 000 000 000 000 000 000 000 -99 -99 -99 -99 000 000 000 -99 -99 -99 000 000 000 000 000 -99 -99 -99 -99 -99 -99
000 000 000 000 000 000 000 000 000 000 -99 -99 -99 -99 -99 -99 000 000 -99 -99 000 000 000 000 000 000 000 -99 -99 -99 -99
000 000 000 000 000 000 000 000 000 000 -99 -99 -99 -99 -99 -99 000 000 -99 -99 000 -99 -99 000 000 000 000 000 -99 -99 -99
000 000 000 000 000 000 000 000 000 000 -99 -99 -99 -99 -99 -99 000 000 000 -99 000 000 -99 -99 000 000 000 000 -99 -99 -99
000 000 000 000 000 000 000 000 000 000 000 000 000 -99 -99 -99 000 000 000 -99 000 000 -99 -99 000 000 000 000 -99 000 -99
000 000 000 000 000 000 000 000 000 000 000 000 000 -99 -99 -99 000 000 000 000 000 000 -99 -99 000 -99 000 000 -99 000 000
000 000 000 000 000 000 -99 000 000 000 -99 000 000 -99 -99 -99 000 000 000 000 -99 000 -99 -99 -99 -99 -99 000 -99 -99 000
000 000 000 000 000 000 000 -99 -99 -99 -99 000 000 -99 -99 000 000 000 000 000 000 000 -99 -99 000 000 -99 000 000 -99 000
000 000 000 000 000 000 000 -99 -99 -99 -99 -99 000 000 -99 000 000 -99 000 -99 -99 -99 -99 -99 000 000 000 000 -99 -99 -99
000 000 000 000 000 000 000 000 000 -99 -99 -99 000 000 -99 -99 000 000 000 -99 -99 000 -99 000 000 000 000 000 000 000 000
000 000 000 000 000 000 000 000 000 -99 -99 -99 -99 000 -99 -99 000 000 000 -99 -99 -99 -99 -99 000 000 000 000 000 000 000
000 000 000 000 000 000 000 000 000 -99 -99 -99 -99 -99 -99 -99 000 000 000 -99 -99 -99 000 -99 000 000 000 000 -99 000 000
000 000 000 000 000 -99 000 000 000 -99 -99 000 -99 -99 -99 -99 000 000 000 -99 -99 -99 000 -99 000 000 000 -99 -99 000 000
000 000 000 000 -99 -99 000 000 000 -99 000 000 -99 -99 -99 000 000 000 000 -99 -99 000 000 -99 -99 -99 -99 -99 -99 000 -99
000 000 000 000 000 -99 -99 000 000 000 000 -99 -99 -99 000 000 000 000 000 -99 000 000 000 -99 -99 -99 -99 -99 -99 -99 -99
000 000 000 000 000 -99 -99 000 000 000 -99 -99 -99 000 000 000 000 000 000 000 000 000 000 -99 -99 -99 -99 -99 -99 -99 -99
000 000 000 000 000 000 -99 000 000 -99 -99 -99 -99 000 000 000 000 000 000 000 000 000 000 -99 -99 -99 -99 -99 -99 -99 -99
000 000 000 -99 000 000 000 000 000 000 -99 -99 000 000 000 000 000 000 000 000 -99 -99 000 -99 -99 -99 -99 -99 -99 -99 -99
000 000 000 000 000 000 000 000 000 000 000 -99 000 000 000 000 000 000 000 000 -99 -99 000 -99 -99 -99 -99 -99 -99 -99 -99
000 000 000 000 000 000 000 000 000 000 -99 -99 000 000 000 000 000 000 000 000 000 000 -99 -99 -99 -99 -99 -99 -99 -99 -99
000 000 000 000 000 000 000 000 000 000 -99 -99 -99 000 000 000 000 000 000 000 000 000 -99 -99 -99 -99 -99 -99 -99 -99 -99
000 000 000 000 000 000 000 000 000 -99 -99 -99 -99 000 000 000 000 000 000 -99 000 000 -99 -99 -99 -99 -99 -99 -99 -99 000
000 000 -99 -99 000 000 000 000 000 000 -99 -99 -99 000 000 -99 000 000 000 -99 000 000 -99 -99 -99 -99 -99 -99 -99 -99 000
000 000 000 000 000 000 -99 000 000 -99 -99 -99 -99 000 000 000 000 000 000 -99 000 000 -99 -99 -99 -99 -99 -99 -99 -99 000
-99 000 000 000 000 000 000 000 000 -99 -99 -99 -99 000 000 -99 000 000 000 000 -99 000 -99 -99 -99 -99 -99 -99 -99 -99 000
000 000 000 000 000 -99 000 000 000 -99 -99 -99 -99 000 000 -99 000 000 000 000 000 000 000 000 -99 -99 -99 000 000 -99 000
000 000 000 000 000 000 000 000 000 -99 -99 -99 -99 -99 -99 -99 000 000 000 -99 000 000 000 000 000 -99 -99 000 000 -99 000
-99 000 000 000 000 000 000 000 -99 -99 -99 -99 -99 -99 000 000 000 000 000 -99 000 000 000 -99 000 000 000 000 000 -99 000
-99 000 000 000 000 000 000 -99 -99 -99 -99 -99 -99 -99 000 000 000 000 000 000 000 000 000 000 000 000 000 000 000 -99 000
000 000 000 -99 000 000 -99 000 000 -99 -99 -99 -99 -99 000 000 000 000 000 -99 000 000 000 000 000 000 000 000 000 -99 000
000 000 -99 000 000 -99 -99 000 000 -99 -99 -99 -99 -99 000 000 000 000 000 000 000 000 000 000 000 000 000 000 000 -99 000
000 -99 000 000 000 -99 -99 000 000 -99 -99 -99 -99 -99 000 000 000 000 000 -99 000 000 000 000 000 -99 000 -99 -99 -99 -99
000 -99 000 000 -99 -99 000 000 -99 -99 -99 -99 -99 -99 000 000 000 000 -99 -99 000 000 000 -99 000 -99 -99 -99 -99 000 -99
-99 -99 000 000 -99 -99 -99 000 -99 -99 -99 -99 -99 -99 000 000 000 000 -99 -99 000 -99 -99 -99 -99 -99 -99 -99 -99 000 -99
000 000 000 -99 -99 -99 -99 -99 -99 -99 000 000 -99 000 000 000 000 -99 -99 -99 -99 -99 -99 -99 -99 -99 -99 -99 -99 000 -99
000 000 -99 -99 -99 -99 -99 -99 -99 -99 -99 -99 000 -99 000 000 -99 -99 -99 000 -99 -99 -99 000 000 -99 -99 -99 -99 000 -99
000 000 -99 -99 -99 -99 -99 -99 -99 -99 -99 -99 000 -99 000 000 -99 -99 -99 000 -99 -99 -99 000 000 000 -99 -99 -99 -99 -99
-99 -99 -99 -99 -99 -99 -99 -99 -99 -99 -99 000 000 -99 000 000 -99 -99 000 000 000 -99 -99 -99 000 000 -99 -99 -99 -99 -99
-99 -99 -99 -99 -99 -99 -99 -99 -99 -99 -99 000 000 -99 000 -99 -99 -99 -99 000 -99 -99 -99 000 000 -99 -99 -99 -99 -99 -99
-99 -99 -99 -99 -99 -99 000 000 -99 -99 -99 000 -99 -99 -99 -99 -99 -99 000 000 -99 -99 -99 000 000 -99 -99 -99 -99 -99 -99
000 000 000 -99 -99 000 000 000 -99 -99 000 000 000 -99 000 -99 -99 -99 000 000 -99 -99 000 000 -99 -99 -99 -99 -99 -99 -99
000 000 000 000 000 000 000 000 -99 000 000 000 000 000 000 000 -99 -99 000 000 -99 -99 000 -99 -99 -99 -99 -99 -99 -99 -99
000 000 000 001 000 001 000 000 000 000 003 002 000 001 000 000 000 -99 -99 -99 -99 -99 000 -99 -99 -99 -99 000 -99 -99 -99
000 001 003 009 005 002 000 000 001 004 007 007 003 003 001 000 000 -99 -99 -99 -99 000 -99 -99 -99 -99 -99 000 -99 -99 -99
001 005 010 025 012 001 000 000 001 007 021 030 009 006 004 000 000 000 000 -99 -99 000 -99 -99 -99 -99 000 -99 -99 -99 -99
004 008 029 037 006 005 001 000 001 005 033 025 010 010 001 000 000 000 000 001 000 -99 -99 -99 -99 -99 000 -99 -99 -99 -99
011 015 045 038 017 008 000 000 000 011 027 026 012 003 001 000 000 001 002 000 -99 -99 -99 -99 -99 -99 -99 -99 -99 -99 -99
006 010 018 039 025 004 000 000 004 021 019 013 006 000 001 001 004 004 001 000 -99 -99 -99 -99 -99 -99 -99 -99 -99 -99 -99
001 003 004 010 019 000 000 000 001 006 004 003 001 000 000 004 008 003 000 000 -99 -99 -99 000 -99 -99 -99 -99 -99 -99 -99
